generated by phonopy
   1.0
     7.1799987179318627    0.0000000000000000    0.0000000000000000
     0.3589989313384843    7.1710179684392745    0.0000000000000000
     0.3589989313384843    0.3414774288049593    7.1628830568742883
C
  64
Direct
  0.1263927579088594  0.3750000000000001  0.1250000000000000
  0.6250000000000000  0.3750000000000001  0.1250000000000000
  0.1250000000000000  0.8750000000000000  0.1250000000000000
  0.6250000000000000  0.8750000000000000  0.1250000000000000
  0.1250000000000000  0.3750000000000001  0.6250000000000000
  0.6250000000000000  0.3750000000000001  0.6250000000000000
  0.1250000000000000  0.8750000000000001  0.6250000000000000
  0.6250000000000000  0.8750000000000001  0.6250000000000000
  0.0000000000000000  0.0000000000000000  0.2500000000000000
  0.5000000000000001  0.0000000000000000  0.2500000000000000
  0.0000000000000000  0.4999999999999999  0.2500000000000000
  0.5000000000000001  0.4999999999999999  0.2500000000000000
  0.0000000000000000  0.0000000000000000  0.7500000000000000
  0.5000000000000001  0.0000000000000000  0.7500000000000000
  0.0000000000000000  0.5000000000000001  0.7500000000000000
  0.5000000000000000  0.5000000000000001  0.7500000000000000
  0.1250000000000000  0.1250000000000000  0.3750000000000000
  0.6250000000000000  0.1250000000000000  0.3750000000000000
  0.1250000000000000  0.6250000000000000  0.3750000000000000
  0.6250000000000001  0.6250000000000000  0.3750000000000000
  0.1250000000000000  0.1250000000000000  0.8750000000000001
  0.6250000000000000  0.1250000000000000  0.8750000000000001
  0.1250000000000000  0.6250000000000000  0.8750000000000001
  0.6250000000000001  0.6250000000000000  0.8750000000000001
  0.0000000000000000  0.2500000000000000  0.0000000000000000
  0.5000000000000000  0.2500000000000000  0.0000000000000000
  0.0000000000000000  0.7500000000000001  0.0000000000000000
  0.5000000000000000  0.7500000000000001  0.0000000000000000
  0.0000000000000000  0.2500000000000000  0.5000000000000000
  0.5000000000000000  0.2500000000000000  0.5000000000000000
  0.0000000000000000  0.7500000000000000  0.5000000000000000
  0.5000000000000000  0.7500000000000000  0.5000000000000000
  0.3750000000000001  0.3750000000000001  0.3750000000000000
  0.8749999999999998  0.3750000000000001  0.3750000000000000
  0.3750000000000000  0.8750000000000000  0.3750000000000000
  0.8749999999999999  0.8750000000000000  0.3750000000000000
  0.3750000000000000  0.3750000000000000  0.8750000000000001
  0.8749999999999998  0.3750000000000000  0.8750000000000001
  0.3749999999999999  0.8750000000000001  0.8750000000000001
  0.8750000000000000  0.8750000000000001  0.8750000000000001
  0.2500000000000000  0.0000000000000000  0.0000000000000000
  0.7500000000000000  0.0000000000000000  0.0000000000000000
  0.2500000000000000  0.5000000000000000  0.0000000000000000
  0.7500000000000000  0.5000000000000000  0.0000000000000000
  0.2500000000000000  0.0000000000000000  0.5000000000000000
  0.7500000000000000  0.0000000000000000  0.5000000000000000
  0.2500000000000000  0.5000000000000000  0.5000000000000000
  0.7500000000000000  0.5000000000000000  0.5000000000000000
  0.3750000000000000  0.1250000000000000  0.1250000000000000
  0.8749999999999999  0.1250000000000000  0.1250000000000000
  0.3749999999999999  0.6250000000000000  0.1250000000000000
  0.8749999999999999  0.6250000000000000  0.1250000000000000
  0.3749999999999999  0.1250000000000000  0.6250000000000000
  0.8749999999999999  0.1250000000000000  0.6250000000000000
  0.3749999999999999  0.6250000000000000  0.6250000000000000
  0.8749999999999999  0.6250000000000000  0.6250000000000000
  0.2499999999999999  0.2500000000000000  0.2500000000000000
  0.7500000000000000  0.2500000000000000  0.2500000000000000
  0.2500000000000001  0.7500000000000002  0.2500000000000000
  0.7500000000000000  0.7500000000000002  0.2500000000000000
  0.2500000000000000  0.2500000000000001  0.7500000000000000
  0.7500000000000000  0.2500000000000001  0.7500000000000000
  0.2500000000000001  0.7500000000000001  0.7500000000000000
  0.7500000000000001  0.7500000000000001  0.7500000000000000
