C8
1.0
        3.5737099648         0.0000000000         0.0000000000
        0.0000000000         3.5737099648         0.0000000000
        0.0000000000         0.0000000000         3.5737099648
    C
    8
Direct
     0.250000000         0.750000000         0.250000000
     0.000000000         0.000000000         0.500000000
     0.250000000         0.250000000         0.750000000
     0.000000000         0.500000000         0.000000000
     0.750000000         0.750000000         0.750000000
     0.500000000         0.000000000         0.000000000
     0.750000000         0.250000000         0.250000000
     0.500000000         0.500000000         0.500000000
