generated by phonopy
   1.0
     7.3221898999987314    0.0000000000000000    0.0000000000000000
     0.0000000000000000    7.3221898999987314    0.0000000000000000
     0.0000000000000000    0.0000000000000000    7.1799987179318627
C
  64
Direct
  0.1259751256360930  0.3750000000000000  0.1259751256360930
  0.6250000000000000  0.3750000000000000  0.1250000000000000
  0.1250000000000000  0.8750000000000000  0.1250000000000000
  0.6250000000000000  0.8750000000000000  0.1250000000000000
  0.1250000000000000  0.3750000000000000  0.6250000000000000
  0.6250000000000000  0.3750000000000000  0.6250000000000000
  0.1250000000000000  0.8750000000000000  0.6250000000000000
  0.6250000000000000  0.8750000000000000  0.6250000000000000
  0.0000000000000000  0.0000000000000000  0.2500000000000000
  0.5000000000000000  0.0000000000000000  0.2500000000000000
  0.0000000000000000  0.5000000000000000  0.2500000000000000
  0.5000000000000000  0.5000000000000000  0.2500000000000000
  0.0000000000000000  0.0000000000000000  0.7500000000000000
  0.5000000000000000  0.0000000000000000  0.7500000000000000
  0.0000000000000000  0.5000000000000000  0.7500000000000000
  0.5000000000000000  0.5000000000000000  0.7500000000000000
  0.1250000000000000  0.1250000000000000  0.3750000000000000
  0.6250000000000000  0.1250000000000000  0.3750000000000000
  0.1250000000000000  0.6250000000000000  0.3750000000000000
  0.6250000000000000  0.6250000000000000  0.3750000000000000
  0.1250000000000000  0.1250000000000000  0.8749999999999999
  0.6250000000000000  0.1250000000000000  0.8749999999999999
  0.1250000000000000  0.6250000000000000  0.8749999999999999
  0.6250000000000000  0.6250000000000000  0.8749999999999999
  0.0000000000000000  0.2500000000000000  0.0000000000000000
  0.5000000000000000  0.2500000000000000  0.0000000000000000
  0.0000000000000000  0.7500000000000000  0.0000000000000000
  0.5000000000000000  0.7500000000000000  0.0000000000000000
  0.0000000000000000  0.2500000000000000  0.5000000000000000
  0.5000000000000000  0.2500000000000000  0.5000000000000000
  0.0000000000000000  0.7500000000000000  0.5000000000000000
  0.5000000000000000  0.7500000000000000  0.5000000000000000
  0.3750000000000000  0.3750000000000000  0.3750000000000000
  0.8750000000000000  0.3750000000000000  0.3750000000000000
  0.3750000000000000  0.8750000000000000  0.3750000000000000
  0.8750000000000000  0.8750000000000000  0.3750000000000000
  0.3750000000000000  0.3750000000000000  0.8749999999999999
  0.8750000000000000  0.3750000000000000  0.8749999999999999
  0.3750000000000000  0.8750000000000000  0.8749999999999999
  0.8750000000000000  0.8750000000000000  0.8749999999999999
  0.2500000000000000  0.0000000000000000  0.0000000000000000
  0.7500000000000000  0.0000000000000000  0.0000000000000000
  0.2500000000000000  0.5000000000000000  0.0000000000000000
  0.7500000000000000  0.5000000000000000  0.0000000000000000
  0.2500000000000000  0.0000000000000000  0.5000000000000000
  0.7500000000000000  0.0000000000000000  0.5000000000000000
  0.2500000000000000  0.5000000000000000  0.5000000000000000
  0.7500000000000000  0.5000000000000000  0.5000000000000000
  0.3750000000000000  0.1250000000000000  0.1250000000000000
  0.8750000000000000  0.1250000000000000  0.1250000000000000
  0.3750000000000000  0.6250000000000000  0.1250000000000000
  0.8750000000000000  0.6250000000000000  0.1250000000000000
  0.3750000000000000  0.1250000000000000  0.6250000000000000
  0.8750000000000000  0.1250000000000000  0.6250000000000000
  0.3750000000000000  0.6250000000000000  0.6250000000000000
  0.8750000000000000  0.6250000000000000  0.6250000000000000
  0.2500000000000000  0.2500000000000000  0.2500000000000000
  0.7500000000000000  0.2500000000000000  0.2500000000000000
  0.2500000000000000  0.7500000000000000  0.2500000000000000
  0.7500000000000000  0.7500000000000000  0.2500000000000000
  0.2500000000000000  0.2500000000000000  0.7500000000000000
  0.7500000000000000  0.2500000000000000  0.7500000000000000
  0.2500000000000000  0.7500000000000000  0.7500000000000000
  0.7500000000000000  0.7500000000000000  0.7500000000000000
