generated by phonopy
   1.0
     7.4962780000000002    0.0000000000000000    0.0000000000000000
     0.0000000000000000    7.4962780000000002    0.0000000000000000
     0.0000000000000000    0.0000000000000000    7.4962780000000002
C
  64
Direct
  0.1263339953507594  0.3750000000000000  0.1250000000000000
  0.6250000000000001  0.3750000000000000  0.1250000000000000
  0.1250000000000000  0.8750000000000000  0.1250000000000000
  0.6250000000000001  0.8750000000000000  0.1250000000000000
  0.1250000000000000  0.3750000000000000  0.6250000000000001
  0.6250000000000001  0.3750000000000000  0.6250000000000001
  0.1250000000000000  0.8750000000000000  0.6250000000000001
  0.6250000000000001  0.8750000000000000  0.6250000000000001
  0.0000000000000000  0.0000000000000000  0.2500000000000000
  0.5000000000000000  0.0000000000000000  0.2500000000000000
  0.0000000000000000  0.5000000000000000  0.2500000000000000
  0.5000000000000000  0.5000000000000000  0.2500000000000000
  0.0000000000000000  0.0000000000000000  0.7500000000000000
  0.5000000000000000  0.0000000000000000  0.7500000000000000
  0.0000000000000000  0.5000000000000000  0.7500000000000000
  0.5000000000000000  0.5000000000000000  0.7500000000000000
  0.1250000000000000  0.1250000000000000  0.3750000000000000
  0.6250000000000001  0.1250000000000000  0.3750000000000000
  0.1250000000000000  0.6250000000000001  0.3750000000000000
  0.6250000000000001  0.6250000000000001  0.3750000000000000
  0.1250000000000000  0.1250000000000000  0.8750000000000000
  0.6250000000000001  0.1250000000000000  0.8750000000000000
  0.1250000000000000  0.6250000000000001  0.8750000000000000
  0.6250000000000001  0.6250000000000001  0.8750000000000000
  0.0000000000000000  0.2500000000000000  0.0000000000000000
  0.5000000000000000  0.2500000000000000  0.0000000000000000
  0.0000000000000000  0.7500000000000000  0.0000000000000000
  0.5000000000000000  0.7500000000000000  0.0000000000000000
  0.0000000000000000  0.2500000000000000  0.5000000000000000
  0.5000000000000000  0.2500000000000000  0.5000000000000000
  0.0000000000000000  0.7500000000000000  0.5000000000000000
  0.5000000000000000  0.7500000000000000  0.5000000000000000
  0.3750000000000000  0.3750000000000000  0.3750000000000000
  0.8750000000000000  0.3750000000000000  0.3750000000000000
  0.3750000000000000  0.8750000000000000  0.3750000000000000
  0.8750000000000000  0.8750000000000000  0.3750000000000000
  0.3750000000000000  0.3750000000000000  0.8750000000000000
  0.8750000000000000  0.3750000000000000  0.8750000000000000
  0.3750000000000000  0.8750000000000000  0.8750000000000000
  0.8750000000000000  0.8750000000000000  0.8750000000000000
  0.2500000000000000  0.0000000000000000  0.0000000000000000
  0.7500000000000000  0.0000000000000000  0.0000000000000000
  0.2500000000000000  0.5000000000000000  0.0000000000000000
  0.7500000000000000  0.5000000000000000  0.0000000000000000
  0.2500000000000000  0.0000000000000000  0.5000000000000000
  0.7500000000000000  0.0000000000000000  0.5000000000000000
  0.2500000000000000  0.5000000000000000  0.5000000000000000
  0.7500000000000000  0.5000000000000000  0.5000000000000000
  0.3750000000000000  0.1250000000000000  0.1250000000000000
  0.8750000000000000  0.1250000000000000  0.1250000000000000
  0.3750000000000000  0.6250000000000001  0.1250000000000000
  0.8750000000000000  0.6250000000000001  0.1250000000000000
  0.3750000000000000  0.1250000000000000  0.6250000000000001
  0.8750000000000000  0.1250000000000000  0.6250000000000001
  0.3750000000000000  0.6250000000000001  0.6250000000000001
  0.8750000000000000  0.6250000000000001  0.6250000000000001
  0.2500000000000000  0.2500000000000000  0.2500000000000000
  0.7500000000000000  0.2500000000000000  0.2500000000000000
  0.2500000000000000  0.7500000000000000  0.2500000000000000
  0.7500000000000000  0.7500000000000000  0.2500000000000000
  0.2500000000000000  0.2500000000000000  0.7500000000000000
  0.7500000000000000  0.2500000000000000  0.7500000000000000
  0.2500000000000000  0.7500000000000000  0.7500000000000000
  0.7500000000000000  0.7500000000000000  0.7500000000000000
