C8
1.0
3.573710 0.000000 0.000000
0.142948 3.570850 0.000000
0.142948 0.137340 3.568208
C
8
direct
0.250000 0.750000 0.250000 C
0.000000 0.000000 0.500000 C
0.250000 0.250000 0.750000 C
0.000000 0.500000 0.000000 C
0.750000 0.750000 0.750000 C
0.500000 0.000000 0.000000 C
0.750000 0.250000 0.250000 C
0.500000 0.500000 0.500000 C
