generated by phonopy
   1.0
     7.1799987179318627    0.0000000000000000    0.0000000000000000
     0.2871991450707874    7.1742526455495801    0.0000000000000000
     0.2871991450707874    0.2759320213225924    7.1689445605027302
C
  64
Direct
  0.1250000000000000  0.3750000000000000  0.1250000000000000
  0.6250000000000000  0.3750000000000000  0.1250000000000000
  0.1250000000000000  0.8750000000000000  0.1250000000000000
  0.6250000000000000  0.8750000000000000  0.1250000000000000
  0.1250000000000000  0.3750000000000000  0.6250000000000000
  0.6250000000000000  0.3750000000000000  0.6250000000000000
  0.1250000000000000  0.8750000000000000  0.6250000000000000
  0.6250000000000000  0.8750000000000000  0.6250000000000000
  0.0000000000000000  0.0000000000000000  0.2500000000000000
  0.5000000000000000  0.0000000000000000  0.2500000000000000
  0.0000000000000000  0.5000000000000000  0.2500000000000000
  0.5000000000000000  0.5000000000000000  0.2500000000000000
  0.0000000000000000  0.0000000000000000  0.7500000000000000
  0.5000000000000000  0.0000000000000000  0.7500000000000000
  0.0000000000000000  0.5000000000000000  0.7500000000000000
  0.5000000000000000  0.5000000000000000  0.7500000000000000
  0.1250000000000000  0.1250000000000000  0.3750000000000000
  0.6250000000000000  0.1250000000000000  0.3750000000000000
  0.1250000000000000  0.6250000000000000  0.3750000000000000
  0.6250000000000000  0.6250000000000000  0.3750000000000000
  0.1250000000000000  0.1250000000000000  0.8750000000000000
  0.6250000000000000  0.1250000000000000  0.8750000000000000
  0.1250000000000000  0.6250000000000000  0.8750000000000000
  0.6250000000000000  0.6250000000000000  0.8750000000000000
  0.0000000000000000  0.2500000000000000  0.0000000000000000
  0.5000000000000000  0.2500000000000000  0.0000000000000000
  0.0000000000000000  0.7500000000000000  0.0000000000000000
  0.5000000000000000  0.7500000000000000  0.0000000000000000
  0.0000000000000000  0.2500000000000000  0.5000000000000000
  0.5000000000000000  0.2500000000000000  0.5000000000000000
  0.0000000000000000  0.7500000000000000  0.5000000000000000
  0.5000000000000000  0.7500000000000000  0.5000000000000000
  0.3750000000000000  0.3750000000000000  0.3750000000000000
  0.8750000000000000  0.3750000000000000  0.3750000000000000
  0.3750000000000000  0.8750000000000000  0.3750000000000000
  0.8750000000000000  0.8750000000000000  0.3750000000000000
  0.3750000000000000  0.3750000000000000  0.8750000000000000
  0.8750000000000000  0.3750000000000000  0.8750000000000000
  0.3750000000000000  0.8750000000000000  0.8750000000000000
  0.8750000000000000  0.8750000000000000  0.8750000000000000
  0.2500000000000000  0.0000000000000000  0.0000000000000000
  0.7500000000000000  0.0000000000000000  0.0000000000000000
  0.2500000000000000  0.5000000000000000  0.0000000000000000
  0.7500000000000000  0.5000000000000000  0.0000000000000000
  0.2500000000000000  0.0000000000000000  0.5000000000000000
  0.7500000000000000  0.0000000000000000  0.5000000000000000
  0.2500000000000000  0.5000000000000000  0.5000000000000000
  0.7500000000000000  0.5000000000000000  0.5000000000000000
  0.3750000000000000  0.1250000000000000  0.1250000000000000
  0.8750000000000000  0.1250000000000000  0.1250000000000000
  0.3750000000000000  0.6250000000000000  0.1250000000000000
  0.8750000000000000  0.6250000000000000  0.1250000000000000
  0.3750000000000000  0.1250000000000000  0.6250000000000000
  0.8750000000000000  0.1250000000000000  0.6250000000000000
  0.3750000000000000  0.6250000000000000  0.6250000000000000
  0.8750000000000000  0.6250000000000000  0.6250000000000000
  0.2500000000000000  0.2500000000000000  0.2500000000000000
  0.7500000000000000  0.2500000000000000  0.2500000000000000
  0.2500000000000000  0.7500000000000000  0.2500000000000000
  0.7500000000000000  0.7500000000000000  0.2500000000000000
  0.2500000000000000  0.2500000000000000  0.7500000000000000
  0.7500000000000000  0.2500000000000000  0.7500000000000000
  0.2500000000000000  0.7500000000000000  0.7500000000000000
  0.7500000000000000  0.7500000000000000  0.7500000000000000
