generated by phonopy
   1.0
     7.4616727934043015    0.0000000000000000    0.0000000000000000
     0.0000000000000000    7.4616727934043015    0.0000000000000000
     0.0000000000000000    0.0000000000000000    7.1799987179318627
C
  64
Direct
  0.1259657039072906  0.3750000000000000  0.1259657039072907
  0.6249999999999999  0.3750000000000000  0.1250000000000000
  0.1250000000000000  0.8749999999999999  0.1250000000000000
  0.6249999999999999  0.8749999999999999  0.1250000000000000
  0.1250000000000000  0.3750000000000000  0.6250000000000000
  0.6249999999999999  0.3750000000000000  0.6250000000000000
  0.1250000000000000  0.8749999999999999  0.6250000000000000
  0.6249999999999999  0.8749999999999999  0.6250000000000000
  0.0000000000000000  0.0000000000000000  0.2500000000000000
  0.4999999999999999  0.0000000000000000  0.2500000000000000
  0.0000000000000000  0.4999999999999999  0.2500000000000000
  0.4999999999999999  0.4999999999999999  0.2500000000000000
  0.0000000000000000  0.0000000000000000  0.7500000000000000
  0.4999999999999999  0.0000000000000000  0.7500000000000000
  0.0000000000000000  0.4999999999999999  0.7500000000000000
  0.4999999999999999  0.4999999999999999  0.7500000000000000
  0.1250000000000000  0.1250000000000000  0.3750000000000000
  0.6249999999999999  0.1250000000000000  0.3750000000000000
  0.1250000000000000  0.6249999999999999  0.3750000000000000
  0.6249999999999999  0.6249999999999999  0.3750000000000000
  0.1250000000000000  0.1250000000000000  0.8749999999999999
  0.6249999999999999  0.1250000000000000  0.8749999999999999
  0.1250000000000000  0.6249999999999999  0.8749999999999999
  0.6249999999999999  0.6249999999999999  0.8749999999999999
  0.0000000000000000  0.2500000000000000  0.0000000000000000
  0.4999999999999999  0.2500000000000000  0.0000000000000000
  0.0000000000000000  0.7500000000000000  0.0000000000000000
  0.4999999999999999  0.7500000000000000  0.0000000000000000
  0.0000000000000000  0.2500000000000000  0.5000000000000000
  0.4999999999999999  0.2500000000000000  0.5000000000000000
  0.0000000000000000  0.7500000000000000  0.5000000000000000
  0.4999999999999999  0.7500000000000000  0.5000000000000000
  0.3750000000000000  0.3750000000000000  0.3750000000000000
  0.8749999999999999  0.3750000000000000  0.3750000000000000
  0.3750000000000000  0.8749999999999999  0.3750000000000000
  0.8749999999999999  0.8749999999999999  0.3750000000000000
  0.3750000000000000  0.3750000000000000  0.8749999999999999
  0.8749999999999999  0.3750000000000000  0.8749999999999999
  0.3750000000000000  0.8749999999999999  0.8749999999999999
  0.8749999999999999  0.8749999999999999  0.8749999999999999
  0.2500000000000000  0.0000000000000000  0.0000000000000000
  0.7500000000000000  0.0000000000000000  0.0000000000000000
  0.2500000000000000  0.4999999999999999  0.0000000000000000
  0.7500000000000000  0.4999999999999999  0.0000000000000000
  0.2500000000000000  0.0000000000000000  0.5000000000000000
  0.7500000000000000  0.0000000000000000  0.5000000000000000
  0.2500000000000000  0.4999999999999999  0.5000000000000000
  0.7500000000000000  0.4999999999999999  0.5000000000000000
  0.3750000000000000  0.1250000000000000  0.1250000000000000
  0.8749999999999999  0.1250000000000000  0.1250000000000000
  0.3750000000000000  0.6249999999999999  0.1250000000000000
  0.8749999999999999  0.6249999999999999  0.1250000000000000
  0.3750000000000000  0.1250000000000000  0.6250000000000000
  0.8749999999999999  0.1250000000000000  0.6250000000000000
  0.3750000000000000  0.6249999999999999  0.6250000000000000
  0.8749999999999999  0.6249999999999999  0.6250000000000000
  0.2500000000000000  0.2500000000000000  0.2500000000000000
  0.7500000000000000  0.2500000000000000  0.2500000000000000
  0.2500000000000000  0.7500000000000000  0.2500000000000000
  0.7500000000000000  0.7500000000000000  0.2500000000000000
  0.2500000000000000  0.2500000000000000  0.7500000000000000
  0.7500000000000000  0.2500000000000000  0.7500000000000000
  0.2500000000000000  0.7500000000000000  0.7500000000000000
  0.7500000000000000  0.7500000000000000  0.7500000000000000
