generated by phonopy
   1.0
     7.1474200000000003    0.0000000000000000    0.0000000000000000
     0.0000000000000000    7.1474200000000003    0.0000000000000000
     0.0000000000000000    0.0000000000000000    7.1474200000000003
C
  64
Direct
  0.1263991062509269  0.3750000000000000  0.1250000000000000
  0.6249999999999999  0.3750000000000000  0.1250000000000000
  0.1250000000000000  0.8750000000000001  0.1250000000000000
  0.6249999999999999  0.8750000000000001  0.1250000000000000
  0.1250000000000000  0.3750000000000000  0.6249999999999999
  0.6249999999999999  0.3750000000000000  0.6249999999999999
  0.1250000000000000  0.8750000000000001  0.6249999999999999
  0.6249999999999999  0.8750000000000001  0.6249999999999999
  0.0000000000000000  0.0000000000000000  0.2500000000000000
  0.5000000000000000  0.0000000000000000  0.2500000000000000
  0.0000000000000000  0.5000000000000000  0.2500000000000000
  0.5000000000000000  0.5000000000000000  0.2500000000000000
  0.0000000000000000  0.0000000000000000  0.7500000000000000
  0.5000000000000000  0.0000000000000000  0.7500000000000000
  0.0000000000000000  0.5000000000000000  0.7500000000000000
  0.5000000000000000  0.5000000000000000  0.7500000000000000
  0.1250000000000000  0.1250000000000000  0.3750000000000000
  0.6249999999999999  0.1250000000000000  0.3750000000000000
  0.1250000000000000  0.6249999999999999  0.3750000000000000
  0.6249999999999999  0.6249999999999999  0.3750000000000000
  0.1250000000000000  0.1250000000000000  0.8750000000000001
  0.6249999999999999  0.1250000000000000  0.8750000000000001
  0.1250000000000000  0.6249999999999999  0.8750000000000001
  0.6249999999999999  0.6249999999999999  0.8750000000000001
  0.0000000000000000  0.2500000000000000  0.0000000000000000
  0.5000000000000000  0.2500000000000000  0.0000000000000000
  0.0000000000000000  0.7500000000000000  0.0000000000000000
  0.5000000000000000  0.7500000000000000  0.0000000000000000
  0.0000000000000000  0.2500000000000000  0.5000000000000000
  0.5000000000000000  0.2500000000000000  0.5000000000000000
  0.0000000000000000  0.7500000000000000  0.5000000000000000
  0.5000000000000000  0.7500000000000000  0.5000000000000000
  0.3750000000000000  0.3750000000000000  0.3750000000000000
  0.8750000000000001  0.3750000000000000  0.3750000000000000
  0.3750000000000000  0.8750000000000001  0.3750000000000000
  0.8750000000000001  0.8750000000000001  0.3750000000000000
  0.3750000000000000  0.3750000000000000  0.8750000000000001
  0.8750000000000001  0.3750000000000000  0.8750000000000001
  0.3750000000000000  0.8750000000000001  0.8750000000000001
  0.8750000000000001  0.8750000000000001  0.8750000000000001
  0.2500000000000000  0.0000000000000000  0.0000000000000000
  0.7500000000000000  0.0000000000000000  0.0000000000000000
  0.2500000000000000  0.5000000000000000  0.0000000000000000
  0.7500000000000000  0.5000000000000000  0.0000000000000000
  0.2500000000000000  0.0000000000000000  0.5000000000000000
  0.7500000000000000  0.0000000000000000  0.5000000000000000
  0.2500000000000000  0.5000000000000000  0.5000000000000000
  0.7500000000000000  0.5000000000000000  0.5000000000000000
  0.3750000000000000  0.1250000000000000  0.1250000000000000
  0.8750000000000001  0.1250000000000000  0.1250000000000000
  0.3750000000000000  0.6249999999999999  0.1250000000000000
  0.8750000000000001  0.6249999999999999  0.1250000000000000
  0.3750000000000000  0.1250000000000000  0.6249999999999999
  0.8750000000000001  0.1250000000000000  0.6249999999999999
  0.3750000000000000  0.6249999999999999  0.6249999999999999
  0.8750000000000001  0.6249999999999999  0.6249999999999999
  0.2500000000000000  0.2500000000000000  0.2500000000000000
  0.7500000000000000  0.2500000000000000  0.2500000000000000
  0.2500000000000000  0.7500000000000000  0.2500000000000000
  0.7500000000000000  0.7500000000000000  0.2500000000000000
  0.2500000000000000  0.2500000000000000  0.7500000000000000
  0.7500000000000000  0.2500000000000000  0.7500000000000000
  0.2500000000000000  0.7500000000000000  0.7500000000000000
  0.7500000000000000  0.7500000000000000  0.7500000000000000
