generated by phonopy
   1.0
     7.0030120000000000    0.0000000000000000    0.0000000000000000
     0.0000000000000000    7.0030120000000000    0.0000000000000000
     0.0000000000000000    0.0000000000000000    7.0030120000000000
C
  64
Direct
  0.1264279569990741  0.3750000000000000  0.1250000000000000
  0.6249999999999999  0.3750000000000000  0.1250000000000000
  0.1250000000000000  0.8750000000000000  0.1250000000000000
  0.6249999999999999  0.8750000000000000  0.1250000000000000
  0.1250000000000000  0.3750000000000000  0.6249999999999999
  0.6249999999999999  0.3750000000000000  0.6249999999999999
  0.1250000000000000  0.8750000000000000  0.6249999999999999
  0.6249999999999999  0.8750000000000000  0.6249999999999999
  0.0000000000000000  0.0000000000000000  0.2500000000000000
  0.4999999999999999  0.0000000000000000  0.2500000000000000
  0.0000000000000000  0.4999999999999999  0.2500000000000000
  0.4999999999999999  0.4999999999999999  0.2500000000000000
  0.0000000000000000  0.0000000000000000  0.7500000000000000
  0.4999999999999999  0.0000000000000000  0.7500000000000000
  0.0000000000000000  0.4999999999999999  0.7500000000000000
  0.4999999999999999  0.4999999999999999  0.7500000000000000
  0.1250000000000000  0.1250000000000000  0.3750000000000000
  0.6249999999999999  0.1250000000000000  0.3750000000000000
  0.1250000000000000  0.6249999999999999  0.3750000000000000
  0.6249999999999999  0.6249999999999999  0.3750000000000000
  0.1250000000000000  0.1250000000000000  0.8750000000000000
  0.6249999999999999  0.1250000000000000  0.8750000000000000
  0.1250000000000000  0.6249999999999999  0.8750000000000000
  0.6249999999999999  0.6249999999999999  0.8750000000000000
  0.0000000000000000  0.2500000000000000  0.0000000000000000
  0.4999999999999999  0.2500000000000000  0.0000000000000000
  0.0000000000000000  0.7500000000000000  0.0000000000000000
  0.4999999999999999  0.7500000000000000  0.0000000000000000
  0.0000000000000000  0.2500000000000000  0.4999999999999999
  0.4999999999999999  0.2500000000000000  0.4999999999999999
  0.0000000000000000  0.7500000000000000  0.4999999999999999
  0.4999999999999999  0.7500000000000000  0.4999999999999999
  0.3750000000000000  0.3750000000000000  0.3750000000000000
  0.8750000000000000  0.3750000000000000  0.3750000000000000
  0.3750000000000000  0.8750000000000000  0.3750000000000000
  0.8750000000000000  0.8750000000000000  0.3750000000000000
  0.3750000000000000  0.3750000000000000  0.8750000000000000
  0.8750000000000000  0.3750000000000000  0.8750000000000000
  0.3750000000000000  0.8750000000000000  0.8750000000000000
  0.8750000000000000  0.8750000000000000  0.8750000000000000
  0.2500000000000000  0.0000000000000000  0.0000000000000000
  0.7500000000000000  0.0000000000000000  0.0000000000000000
  0.2500000000000000  0.4999999999999999  0.0000000000000000
  0.7500000000000000  0.4999999999999999  0.0000000000000000
  0.2500000000000000  0.0000000000000000  0.4999999999999999
  0.7500000000000000  0.0000000000000000  0.4999999999999999
  0.2500000000000000  0.4999999999999999  0.4999999999999999
  0.7500000000000000  0.4999999999999999  0.4999999999999999
  0.3750000000000000  0.1250000000000000  0.1250000000000000
  0.8750000000000000  0.1250000000000000  0.1250000000000000
  0.3750000000000000  0.6249999999999999  0.1250000000000000
  0.8750000000000000  0.6249999999999999  0.1250000000000000
  0.3750000000000000  0.1250000000000000  0.6249999999999999
  0.8750000000000000  0.1250000000000000  0.6249999999999999
  0.3750000000000000  0.6249999999999999  0.6249999999999999
  0.8750000000000000  0.6249999999999999  0.6249999999999999
  0.2500000000000000  0.2500000000000000  0.2500000000000000
  0.7500000000000000  0.2500000000000000  0.2500000000000000
  0.2500000000000000  0.7500000000000000  0.2500000000000000
  0.7500000000000000  0.7500000000000000  0.2500000000000000
  0.2500000000000000  0.2500000000000000  0.7500000000000000
  0.7500000000000000  0.2500000000000000  0.7500000000000000
  0.2500000000000000  0.7500000000000000  0.7500000000000000
  0.7500000000000000  0.7500000000000000  0.7500000000000000
