C8
1.0045581087905653
3.573710 0.000000 0.000000
-0.178685 3.569240 0.000000
-0.178685 -0.187855 3.564293
C
8
direct
0.250000 0.750000 0.250000 C
0.000000 0.000000 0.500000 C
0.250000 0.250000 0.750000 C
0.000000 0.500000 0.000000 C
0.750000 0.750000 0.750000 C
0.500000 0.000000 0.000000 C
0.750000 0.250000 0.250000 C
0.500000 0.500000 0.500000 C
