generated by phonopy
   1.0
     7.2889660000000003    0.0000000000000000    0.0000000000000000
     0.0000000000000000    7.2889660000000003    0.0000000000000000
     0.0000000000000000    0.0000000000000000    7.2889660000000003
C
  64
Direct
  0.1263719367054257  0.3750000000000000  0.1250000000000000
  0.6250000000000000  0.3750000000000000  0.1250000000000000
  0.1250000000000000  0.8750000000000000  0.1250000000000000
  0.6250000000000000  0.8750000000000000  0.1250000000000000
  0.1250000000000000  0.3750000000000000  0.6250000000000000
  0.6250000000000000  0.3750000000000000  0.6250000000000000
  0.1250000000000000  0.8750000000000000  0.6250000000000000
  0.6250000000000000  0.8750000000000000  0.6250000000000000
  0.0000000000000000  0.0000000000000000  0.2500000000000000
  0.5000000000000000  0.0000000000000000  0.2500000000000000
  0.0000000000000000  0.5000000000000000  0.2500000000000000
  0.5000000000000000  0.5000000000000000  0.2500000000000000
  0.0000000000000000  0.0000000000000000  0.7500000000000000
  0.5000000000000000  0.0000000000000000  0.7500000000000000
  0.0000000000000000  0.5000000000000000  0.7500000000000000
  0.5000000000000000  0.5000000000000000  0.7500000000000000
  0.1250000000000000  0.1250000000000000  0.3750000000000000
  0.6250000000000000  0.1250000000000000  0.3750000000000000
  0.1250000000000000  0.6250000000000000  0.3750000000000000
  0.6250000000000000  0.6250000000000000  0.3750000000000000
  0.1250000000000000  0.1250000000000000  0.8750000000000000
  0.6250000000000000  0.1250000000000000  0.8750000000000000
  0.1250000000000000  0.6250000000000000  0.8750000000000000
  0.6250000000000000  0.6250000000000000  0.8750000000000000
  0.0000000000000000  0.2500000000000000  0.0000000000000000
  0.5000000000000000  0.2500000000000000  0.0000000000000000
  0.0000000000000000  0.7500000000000000  0.0000000000000000
  0.5000000000000000  0.7500000000000000  0.0000000000000000
  0.0000000000000000  0.2500000000000000  0.5000000000000000
  0.5000000000000000  0.2500000000000000  0.5000000000000000
  0.0000000000000000  0.7500000000000000  0.5000000000000000
  0.5000000000000000  0.7500000000000000  0.5000000000000000
  0.3750000000000000  0.3750000000000000  0.3750000000000000
  0.8750000000000000  0.3750000000000000  0.3750000000000000
  0.3750000000000000  0.8750000000000000  0.3750000000000000
  0.8750000000000000  0.8750000000000000  0.3750000000000000
  0.3750000000000000  0.3750000000000000  0.8750000000000000
  0.8750000000000000  0.3750000000000000  0.8750000000000000
  0.3750000000000000  0.8750000000000000  0.8750000000000000
  0.8750000000000000  0.8750000000000000  0.8750000000000000
  0.2500000000000000  0.0000000000000000  0.0000000000000000
  0.7500000000000000  0.0000000000000000  0.0000000000000000
  0.2500000000000000  0.5000000000000000  0.0000000000000000
  0.7500000000000000  0.5000000000000000  0.0000000000000000
  0.2500000000000000  0.0000000000000000  0.5000000000000000
  0.7500000000000000  0.0000000000000000  0.5000000000000000
  0.2500000000000000  0.5000000000000000  0.5000000000000000
  0.7500000000000000  0.5000000000000000  0.5000000000000000
  0.3750000000000000  0.1250000000000000  0.1250000000000000
  0.8750000000000000  0.1250000000000000  0.1250000000000000
  0.3750000000000000  0.6250000000000000  0.1250000000000000
  0.8750000000000000  0.6250000000000000  0.1250000000000000
  0.3750000000000000  0.1250000000000000  0.6250000000000000
  0.8750000000000000  0.1250000000000000  0.6250000000000000
  0.3750000000000000  0.6250000000000000  0.6250000000000000
  0.8750000000000000  0.6250000000000000  0.6250000000000000
  0.2500000000000000  0.2500000000000000  0.2500000000000000
  0.7500000000000000  0.2500000000000000  0.2500000000000000
  0.2500000000000000  0.7500000000000000  0.2500000000000000
  0.7500000000000000  0.7500000000000000  0.2500000000000000
  0.2500000000000000  0.2500000000000000  0.7500000000000000
  0.7500000000000000  0.2500000000000000  0.7500000000000000
  0.2500000000000000  0.7500000000000000  0.7500000000000000
  0.7500000000000000  0.7500000000000000  0.7500000000000000
