kpt_density=3000
0
Gamma
 6  6  6
 0. 0. 0.
