C8
1.0
3.573710 0.000000 0.000000
-0.107211 3.572101 0.000000
-0.107211 -0.110477 3.570393
C
8
direct
0.250000 0.750000 0.250000 C
0.000000 0.000000 0.500000 C
0.250000 0.250000 0.750000 C
0.000000 0.500000 0.000000 C
0.750000 0.750000 0.750000 C
0.500000 0.000000 0.000000 C
0.750000 0.250000 0.250000 C
0.500000 0.500000 0.500000 C
