generated by phonopy
   1.0
     7.1799987179318627    0.0000000000000000    0.0000000000000000
     0.0717997862676969    7.1796390861289154    0.0000000000000000
     0.0717997862676969    0.0710845408942380    7.1792874907908386
C
  64
Direct
  0.1263927579088594  0.3749999999999999  0.1250000000000000
  0.6250000000000000  0.3749999999999999  0.1250000000000000
  0.1250000000000000  0.8750000000000000  0.1250000000000000
  0.6250000000000001  0.8750000000000000  0.1250000000000000
  0.1250000000000000  0.3750000000000000  0.6250000000000000
  0.6250000000000001  0.3750000000000000  0.6250000000000000
  0.1250000000000000  0.8750000000000000  0.6250000000000000
  0.6250000000000001  0.8750000000000000  0.6250000000000000
  0.0000000000000000  0.0000000000000000  0.2500000000000000
  0.4999999999999999  0.0000000000000000  0.2500000000000000
  0.0000000000000000  0.5000000000000000  0.2500000000000000
  0.4999999999999999  0.5000000000000000  0.2500000000000000
  0.0000000000000000  0.0000000000000000  0.7500000000000001
  0.4999999999999999  0.0000000000000000  0.7500000000000001
  0.0000000000000000  0.5000000000000000  0.7500000000000001
  0.5000000000000001  0.5000000000000000  0.7500000000000001
  0.1250000000000000  0.1250000000000000  0.3750000000000001
  0.6250000000000000  0.1250000000000000  0.3750000000000001
  0.1250000000000000  0.6250000000000000  0.3750000000000001
  0.6250000000000000  0.6250000000000000  0.3750000000000001
  0.1250000000000000  0.1250000000000000  0.8750000000000000
  0.6250000000000000  0.1250000000000000  0.8750000000000000
  0.1250000000000000  0.6250000000000000  0.8750000000000000
  0.6250000000000000  0.6250000000000000  0.8750000000000000
  0.0000000000000000  0.2500000000000000  0.0000000000000000
  0.4999999999999999  0.2500000000000000  0.0000000000000000
  0.0000000000000000  0.7500000000000000  0.0000000000000000
  0.4999999999999999  0.7500000000000000  0.0000000000000000
  0.0000000000000000  0.2500000000000000  0.5000000000000000
  0.4999999999999999  0.2500000000000000  0.5000000000000000
  0.0000000000000000  0.7500000000000001  0.5000000000000000
  0.5000000000000000  0.7500000000000001  0.5000000000000000
  0.3750000000000000  0.3750000000000000  0.3750000000000001
  0.8749999999999999  0.3750000000000000  0.3750000000000001
  0.3750000000000000  0.8749999999999999  0.3750000000000001
  0.8749999999999999  0.8749999999999999  0.3750000000000001
  0.3749999999999999  0.3750000000000000  0.8750000000000000
  0.8749999999999999  0.3750000000000000  0.8750000000000000
  0.3749999999999999  0.8750000000000000  0.8750000000000000
  0.8749999999999999  0.8750000000000000  0.8750000000000000
  0.2500000000000000  0.0000000000000000  0.0000000000000000
  0.7500000000000000  0.0000000000000000  0.0000000000000000
  0.2500000000000000  0.5000000000000000  0.0000000000000000
  0.7500000000000000  0.5000000000000000  0.0000000000000000
  0.2500000000000000  0.0000000000000000  0.5000000000000000
  0.7500000000000000  0.0000000000000000  0.5000000000000000
  0.2499999999999999  0.4999999999999999  0.5000000000000000
  0.7500000000000000  0.4999999999999999  0.5000000000000000
  0.3750000000000000  0.1250000000000000  0.1250000000000000
  0.8750000000000000  0.1250000000000000  0.1250000000000000
  0.3750000000000000  0.6250000000000000  0.1250000000000000
  0.8750000000000000  0.6250000000000000  0.1250000000000000
  0.3750000000000000  0.1250000000000000  0.6250000000000000
  0.8749999999999999  0.1250000000000000  0.6250000000000000
  0.3750000000000000  0.6250000000000000  0.6250000000000000
  0.8749999999999999  0.6250000000000000  0.6250000000000000
  0.2500000000000000  0.2500000000000000  0.2500000000000000
  0.7500000000000000  0.2500000000000000  0.2500000000000000
  0.2500000000000000  0.7499999999999999  0.2500000000000000
  0.7500000000000000  0.7499999999999999  0.2500000000000000
  0.2500000000000000  0.2500000000000000  0.7500000000000001
  0.7500000000000000  0.2500000000000000  0.7500000000000001
  0.2500000000000000  0.7500000000000000  0.7500000000000001
  0.7500000000000000  0.7500000000000000  0.7500000000000001
