kpt_density=3000
0
Gamma
 8  8  8
 0. 0. 0.
