kpt_density=3000
0
Gamma
 4  4  4
 0. 0. 0.
