generated by phonopy
   1.0
     7.1799987179318627    0.0000000000000000    0.0000000000000000
    -0.2153993588030906    7.1767660499377737    0.0000000000000000
    -0.2153993588030906   -0.2219611323697106    7.1733344794381457
C
  64
Direct
  0.1236072420911406  0.3750000000000000  0.1250000000000000
  0.6250000000000001  0.3750000000000000  0.1250000000000000
  0.1250000000000000  0.8750000000000000  0.1250000000000000
  0.6250000000000000  0.8750000000000000  0.1250000000000000
  0.1250000000000000  0.3750000000000000  0.6249999999999999
  0.6250000000000001  0.3750000000000000  0.6249999999999999
  0.1250000000000000  0.8750000000000000  0.6249999999999999
  0.6250000000000000  0.8750000000000000  0.6249999999999999
  0.0000000000000000  0.0000000000000000  0.2500000000000000
  0.5000000000000000  0.0000000000000000  0.2500000000000000
  0.0000000000000000  0.5000000000000000  0.2500000000000000
  0.4999999999999999  0.5000000000000000  0.2500000000000000
  0.0000000000000000  0.0000000000000000  0.7499999999999999
  0.5000000000000000  0.0000000000000000  0.7499999999999999
  0.0000000000000000  0.5000000000000000  0.7499999999999999
  0.4999999999999999  0.5000000000000000  0.7499999999999999
  0.1250000000000000  0.1250000000000000  0.3749999999999999
  0.6250000000000000  0.1250000000000000  0.3749999999999999
  0.1250000000000000  0.6250000000000000  0.3749999999999999
  0.6250000000000000  0.6250000000000000  0.3749999999999999
  0.1250000000000000  0.1250000000000000  0.8749999999999999
  0.6250000000000000  0.1250000000000000  0.8749999999999999
  0.1250000000000000  0.6250000000000001  0.8749999999999999
  0.6250000000000001  0.6250000000000001  0.8749999999999999
  0.0000000000000000  0.2500000000000000  0.0000000000000000
  0.5000000000000000  0.2500000000000000  0.0000000000000000
  0.0000000000000000  0.7500000000000000  0.0000000000000000
  0.4999999999999999  0.7500000000000000  0.0000000000000000
  0.0000000000000000  0.2500000000000000  0.4999999999999999
  0.4999999999999999  0.2500000000000000  0.4999999999999999
  0.0000000000000000  0.7500000000000001  0.4999999999999999
  0.4999999999999999  0.7500000000000001  0.4999999999999999
  0.3750000000000001  0.3750000000000000  0.3749999999999999
  0.8750000000000000  0.3750000000000000  0.3749999999999999
  0.3750000000000000  0.8750000000000000  0.3749999999999999
  0.8749999999999998  0.8750000000000000  0.3749999999999999
  0.3750000000000000  0.3749999999999999  0.8749999999999999
  0.8749999999999999  0.3749999999999999  0.8749999999999999
  0.3750000000000000  0.8750000000000001  0.8749999999999999
  0.8749999999999998  0.8750000000000001  0.8749999999999999
  0.2500000000000000  0.0000000000000000  0.0000000000000000
  0.7500000000000000  0.0000000000000000  0.0000000000000000
  0.2500000000000000  0.5000000000000000  0.0000000000000000
  0.7500000000000000  0.5000000000000000  0.0000000000000000
  0.2500000000000000  0.0000000000000000  0.4999999999999999
  0.7500000000000000  0.0000000000000000  0.4999999999999999
  0.2500000000000000  0.5000000000000001  0.4999999999999999
  0.7500000000000001  0.5000000000000001  0.4999999999999999
  0.3750000000000001  0.1250000000000000  0.1250000000000000
  0.8750000000000000  0.1250000000000000  0.1250000000000000
  0.3750000000000001  0.6250000000000000  0.1250000000000000
  0.8750000000000000  0.6250000000000000  0.1250000000000000
  0.3750000000000000  0.1250000000000000  0.6249999999999999
  0.8750000000000000  0.1250000000000000  0.6249999999999999
  0.3749999999999999  0.6250000000000001  0.6249999999999999
  0.8750000000000001  0.6250000000000001  0.6249999999999999
  0.2499999999999999  0.2500000000000001  0.2500000000000000
  0.7500000000000001  0.2500000000000001  0.2500000000000000
  0.2500000000000000  0.7500000000000000  0.2500000000000000
  0.7500000000000001  0.7500000000000000  0.2500000000000000
  0.2500000000000000  0.2500000000000001  0.7499999999999999
  0.7500000000000001  0.2500000000000001  0.7499999999999999
  0.2500000000000000  0.7500000000000000  0.7499999999999999
  0.7500000000000001  0.7500000000000000  0.7499999999999999
