generated by phonopy
   1.0
     7.1078352816287831    0.0000000000000000    0.0000000000000000
     0.0000000000000000    7.1078352816287831    0.0000000000000000
     0.0000000000000000    0.0000000000000000    7.1078352816287831
C
  64
Direct
  0.1264068981066354  0.3749999999999999  0.1250000000000000
  0.6250000000000000  0.3749999999999999  0.1250000000000000
  0.1250000000000000  0.8750000000000000  0.1250000000000000
  0.6250000000000000  0.8750000000000000  0.1250000000000000
  0.1250000000000000  0.3749999999999999  0.6250000000000000
  0.6250000000000000  0.3749999999999999  0.6250000000000000
  0.1250000000000000  0.8750000000000000  0.6250000000000000
  0.6250000000000000  0.8750000000000000  0.6250000000000000
  0.0000000000000000  0.0000000000000000  0.2500000000000000
  0.5000000000000000  0.0000000000000000  0.2500000000000000
  0.0000000000000000  0.5000000000000000  0.2500000000000000
  0.5000000000000000  0.5000000000000000  0.2500000000000000
  0.0000000000000000  0.0000000000000000  0.7499999999999999
  0.5000000000000000  0.0000000000000000  0.7499999999999999
  0.0000000000000000  0.5000000000000000  0.7499999999999999
  0.5000000000000000  0.5000000000000000  0.7499999999999999
  0.1250000000000000  0.1250000000000000  0.3749999999999999
  0.6250000000000000  0.1250000000000000  0.3749999999999999
  0.1250000000000000  0.6250000000000000  0.3749999999999999
  0.6250000000000000  0.6250000000000000  0.3749999999999999
  0.1250000000000000  0.1250000000000000  0.8750000000000000
  0.6250000000000000  0.1250000000000000  0.8750000000000000
  0.1250000000000000  0.6250000000000000  0.8750000000000000
  0.6250000000000000  0.6250000000000000  0.8750000000000000
  0.0000000000000000  0.2500000000000000  0.0000000000000000
  0.5000000000000000  0.2500000000000000  0.0000000000000000
  0.0000000000000000  0.7499999999999999  0.0000000000000000
  0.5000000000000000  0.7499999999999999  0.0000000000000000
  0.0000000000000000  0.2500000000000000  0.5000000000000000
  0.5000000000000000  0.2500000000000000  0.5000000000000000
  0.0000000000000000  0.7499999999999999  0.5000000000000000
  0.5000000000000000  0.7499999999999999  0.5000000000000000
  0.3749999999999999  0.3749999999999999  0.3749999999999999
  0.8750000000000000  0.3749999999999999  0.3749999999999999
  0.3749999999999999  0.8750000000000000  0.3749999999999999
  0.8750000000000000  0.8750000000000000  0.3749999999999999
  0.3749999999999999  0.3749999999999999  0.8750000000000000
  0.8750000000000000  0.3749999999999999  0.8750000000000000
  0.3749999999999999  0.8750000000000000  0.8750000000000000
  0.8750000000000000  0.8750000000000000  0.8750000000000000
  0.2500000000000000  0.0000000000000000  0.0000000000000000
  0.7499999999999999  0.0000000000000000  0.0000000000000000
  0.2500000000000000  0.5000000000000000  0.0000000000000000
  0.7499999999999999  0.5000000000000000  0.0000000000000000
  0.2500000000000000  0.0000000000000000  0.5000000000000000
  0.7499999999999999  0.0000000000000000  0.5000000000000000
  0.2500000000000000  0.5000000000000000  0.5000000000000000
  0.7499999999999999  0.5000000000000000  0.5000000000000000
  0.3749999999999999  0.1250000000000000  0.1250000000000000
  0.8750000000000000  0.1250000000000000  0.1250000000000000
  0.3749999999999999  0.6250000000000000  0.1250000000000000
  0.8750000000000000  0.6250000000000000  0.1250000000000000
  0.3749999999999999  0.1250000000000000  0.6250000000000000
  0.8750000000000000  0.1250000000000000  0.6250000000000000
  0.3749999999999999  0.6250000000000000  0.6250000000000000
  0.8750000000000000  0.6250000000000000  0.6250000000000000
  0.2500000000000000  0.2500000000000000  0.2500000000000000
  0.7499999999999999  0.2500000000000000  0.2500000000000000
  0.2500000000000000  0.7499999999999999  0.2500000000000000
  0.7499999999999999  0.7499999999999999  0.2500000000000000
  0.2500000000000000  0.2500000000000000  0.7499999999999999
  0.7499999999999999  0.2500000000000000  0.7499999999999999
  0.2500000000000000  0.7499999999999999  0.7499999999999999
  0.7499999999999999  0.7499999999999999  0.7499999999999999
