generated by phonopy
   1.0
     6.8115448856734409    0.0000000000000000    0.0000000000000000
     0.0000000000000000    6.8115448856734409    0.0000000000000000
     0.0000000000000000    0.0000000000000000    6.8115448856734409
C
  64
Direct
  0.1264680957356726  0.3749999999999999  0.1250000000000000
  0.6249999999999999  0.3749999999999999  0.1250000000000000
  0.1250000000000000  0.8749999999999999  0.1250000000000000
  0.6249999999999999  0.8749999999999999  0.1250000000000000
  0.1250000000000000  0.3749999999999999  0.6249999999999999
  0.6249999999999999  0.3749999999999999  0.6249999999999999
  0.1250000000000000  0.8749999999999999  0.6249999999999999
  0.6249999999999999  0.8749999999999999  0.6249999999999999
  0.0000000000000000  0.0000000000000000  0.2500000000000000
  0.4999999999999999  0.0000000000000000  0.2500000000000000
  0.0000000000000000  0.4999999999999999  0.2500000000000000
  0.4999999999999999  0.4999999999999999  0.2500000000000000
  0.0000000000000000  0.0000000000000000  0.7499999999999999
  0.4999999999999999  0.0000000000000000  0.7499999999999999
  0.0000000000000000  0.4999999999999999  0.7499999999999999
  0.4999999999999999  0.4999999999999999  0.7499999999999999
  0.1250000000000000  0.1250000000000000  0.3749999999999999
  0.6249999999999999  0.1250000000000000  0.3749999999999999
  0.1250000000000000  0.6249999999999999  0.3749999999999999
  0.6249999999999999  0.6249999999999999  0.3749999999999999
  0.1250000000000000  0.1250000000000000  0.8749999999999999
  0.6249999999999999  0.1250000000000000  0.8749999999999999
  0.1250000000000000  0.6249999999999999  0.8749999999999999
  0.6249999999999999  0.6249999999999999  0.8749999999999999
  0.0000000000000000  0.2500000000000000  0.0000000000000000
  0.4999999999999999  0.2500000000000000  0.0000000000000000
  0.0000000000000000  0.7499999999999999  0.0000000000000000
  0.4999999999999999  0.7499999999999999  0.0000000000000000
  0.0000000000000000  0.2500000000000000  0.4999999999999999
  0.4999999999999999  0.2500000000000000  0.4999999999999999
  0.0000000000000000  0.7499999999999999  0.4999999999999999
  0.4999999999999999  0.7499999999999999  0.4999999999999999
  0.3749999999999999  0.3749999999999999  0.3749999999999999
  0.8749999999999999  0.3749999999999999  0.3749999999999999
  0.3749999999999999  0.8749999999999999  0.3749999999999999
  0.8749999999999999  0.8749999999999999  0.3749999999999999
  0.3749999999999999  0.3749999999999999  0.8749999999999999
  0.8749999999999999  0.3749999999999999  0.8749999999999999
  0.3749999999999999  0.8749999999999999  0.8749999999999999
  0.8749999999999999  0.8749999999999999  0.8749999999999999
  0.2500000000000000  0.0000000000000000  0.0000000000000000
  0.7499999999999999  0.0000000000000000  0.0000000000000000
  0.2500000000000000  0.4999999999999999  0.0000000000000000
  0.7499999999999999  0.4999999999999999  0.0000000000000000
  0.2500000000000000  0.0000000000000000  0.4999999999999999
  0.7499999999999999  0.0000000000000000  0.4999999999999999
  0.2500000000000000  0.4999999999999999  0.4999999999999999
  0.7499999999999999  0.4999999999999999  0.4999999999999999
  0.3749999999999999  0.1250000000000000  0.1250000000000000
  0.8749999999999999  0.1250000000000000  0.1250000000000000
  0.3749999999999999  0.6249999999999999  0.1250000000000000
  0.8749999999999999  0.6249999999999999  0.1250000000000000
  0.3749999999999999  0.1250000000000000  0.6249999999999999
  0.8749999999999999  0.1250000000000000  0.6249999999999999
  0.3749999999999999  0.6249999999999999  0.6249999999999999
  0.8749999999999999  0.6249999999999999  0.6249999999999999
  0.2500000000000000  0.2500000000000000  0.2500000000000000
  0.7499999999999999  0.2500000000000000  0.2500000000000000
  0.2500000000000000  0.7499999999999999  0.2500000000000000
  0.7499999999999999  0.7499999999999999  0.2500000000000000
  0.2500000000000000  0.2500000000000000  0.7499999999999999
  0.7499999999999999  0.2500000000000000  0.7499999999999999
  0.2500000000000000  0.7499999999999999  0.7499999999999999
  0.7499999999999999  0.7499999999999999  0.7499999999999999
