PREC=Accurate
IBRION=8
EDIFF=1e-8
IALGO=38
ISMEAR=0
SIGMA=0.06
LREAL=.FALSE.
ADDGRID=.TRUE.
LWAVE=.FALSE.
LCHARG=.FALSE.
