generated by phonopy
   1.0
     7.1799987179318627    0.0000000000000000    0.0000000000000000
    -0.1435995725353937    7.1785621998362918    0.0000000000000000
    -0.1435995725353937   -0.1465007363535809    7.1770674173704112
C
  64
Direct
  0.1236072420911406  0.3750000000000000  0.1250000000000000
  0.6250000000000000  0.3750000000000000  0.1250000000000000
  0.1250000000000000  0.8750000000000001  0.1250000000000000
  0.6250000000000000  0.8750000000000001  0.1250000000000000
  0.1250000000000000  0.3750000000000000  0.6250000000000000
  0.6250000000000000  0.3750000000000000  0.6250000000000000
  0.1250000000000000  0.8750000000000000  0.6250000000000000
  0.6250000000000001  0.8750000000000000  0.6250000000000000
  0.0000000000000000  0.0000000000000000  0.2500000000000000
  0.5000000000000000  0.0000000000000000  0.2500000000000000
  0.0000000000000000  0.5000000000000001  0.2500000000000000
  0.5000000000000000  0.5000000000000001  0.2500000000000000
  0.0000000000000000  0.0000000000000000  0.7500000000000001
  0.5000000000000000  0.0000000000000000  0.7500000000000001
  0.0000000000000000  0.5000000000000000  0.7500000000000001
  0.5000000000000000  0.5000000000000000  0.7500000000000001
  0.1250000000000000  0.1250000000000000  0.3750000000000001
  0.6250000000000000  0.1250000000000000  0.3750000000000001
  0.1250000000000000  0.6250000000000000  0.3750000000000001
  0.6250000000000000  0.6250000000000000  0.3750000000000001
  0.1250000000000000  0.1250000000000000  0.8750000000000001
  0.6250000000000000  0.1250000000000000  0.8750000000000001
  0.1250000000000000  0.6250000000000001  0.8750000000000001
  0.6250000000000001  0.6250000000000001  0.8750000000000001
  0.0000000000000000  0.2500000000000000  0.0000000000000000
  0.5000000000000000  0.2500000000000000  0.0000000000000000
  0.0000000000000000  0.7500000000000000  0.0000000000000000
  0.5000000000000000  0.7500000000000000  0.0000000000000000
  0.0000000000000000  0.2500000000000000  0.5000000000000000
  0.5000000000000000  0.2500000000000000  0.5000000000000000
  0.0000000000000000  0.7500000000000000  0.5000000000000000
  0.5000000000000000  0.7500000000000000  0.5000000000000000
  0.3750000000000001  0.3750000000000001  0.3750000000000001
  0.8749999999999999  0.3750000000000001  0.3750000000000001
  0.3750000000000000  0.8750000000000000  0.3750000000000001
  0.8749999999999999  0.8750000000000000  0.3750000000000001
  0.3750000000000000  0.3750000000000000  0.8750000000000001
  0.8749999999999999  0.3750000000000000  0.8750000000000001
  0.3749999999999999  0.8750000000000001  0.8750000000000001
  0.8750000000000000  0.8750000000000001  0.8750000000000001
  0.2500000000000000  0.0000000000000000  0.0000000000000000
  0.7500000000000000  0.0000000000000000  0.0000000000000000
  0.2500000000000000  0.5000000000000000  0.0000000000000000
  0.7500000000000000  0.5000000000000000  0.0000000000000000
  0.2500000000000000  0.0000000000000000  0.5000000000000000
  0.7500000000000000  0.0000000000000000  0.5000000000000000
  0.2500000000000000  0.5000000000000000  0.5000000000000000
  0.7500000000000001  0.5000000000000000  0.5000000000000000
  0.3750000000000000  0.1250000000000000  0.1250000000000000
  0.8749999999999999  0.1250000000000000  0.1250000000000000
  0.3750000000000000  0.6250000000000000  0.1250000000000000
  0.8749999999999999  0.6250000000000000  0.1250000000000000
  0.3750000000000000  0.1250000000000000  0.6250000000000000
  0.8749999999999999  0.1250000000000000  0.6250000000000000
  0.3749999999999999  0.6250000000000000  0.6250000000000000
  0.8749999999999999  0.6250000000000000  0.6250000000000000
  0.2500000000000000  0.2500000000000000  0.2500000000000000
  0.7500000000000000  0.2500000000000000  0.2500000000000000
  0.2500000000000000  0.7500000000000000  0.2500000000000000
  0.7500000000000001  0.7500000000000000  0.2500000000000000
  0.2500000000000000  0.2500000000000000  0.7500000000000001
  0.7500000000000001  0.2500000000000000  0.7500000000000001
  0.2500000000000000  0.7500000000000001  0.7500000000000001
  0.7500000000000001  0.7500000000000001  0.7500000000000001
