generated by phonopy
   1.0
     7.2185400000000000    0.0000000000000000    0.0000000000000000
     0.0000000000000000    7.2185400000000000    0.0000000000000000
     0.0000000000000000    0.0000000000000000    7.2185400000000000
C
  64
Direct
  0.1263853216855486  0.3749999999999999  0.1250000000000000
  0.6250000000000000  0.3749999999999999  0.1250000000000000
  0.1250000000000000  0.8750000000000000  0.1250000000000000
  0.6250000000000000  0.8750000000000000  0.1250000000000000
  0.1250000000000000  0.3749999999999999  0.6250000000000000
  0.6250000000000000  0.3749999999999999  0.6250000000000000
  0.1250000000000000  0.8750000000000000  0.6250000000000000
  0.6250000000000000  0.8750000000000000  0.6250000000000000
  0.0000000000000000  0.0000000000000000  0.2500000000000000
  0.4999999999999999  0.0000000000000000  0.2500000000000000
  0.0000000000000000  0.4999999999999999  0.2500000000000000
  0.4999999999999999  0.4999999999999999  0.2500000000000000
  0.0000000000000000  0.0000000000000000  0.7499999999999999
  0.4999999999999999  0.0000000000000000  0.7499999999999999
  0.0000000000000000  0.4999999999999999  0.7499999999999999
  0.4999999999999999  0.4999999999999999  0.7499999999999999
  0.1250000000000000  0.1250000000000000  0.3749999999999999
  0.6250000000000000  0.1250000000000000  0.3749999999999999
  0.1250000000000000  0.6250000000000000  0.3749999999999999
  0.6250000000000000  0.6250000000000000  0.3749999999999999
  0.1250000000000000  0.1250000000000000  0.8750000000000000
  0.6250000000000000  0.1250000000000000  0.8750000000000000
  0.1250000000000000  0.6250000000000000  0.8750000000000000
  0.6250000000000000  0.6250000000000000  0.8750000000000000
  0.0000000000000000  0.2500000000000000  0.0000000000000000
  0.4999999999999999  0.2500000000000000  0.0000000000000000
  0.0000000000000000  0.7499999999999999  0.0000000000000000
  0.4999999999999999  0.7499999999999999  0.0000000000000000
  0.0000000000000000  0.2500000000000000  0.4999999999999999
  0.4999999999999999  0.2500000000000000  0.4999999999999999
  0.0000000000000000  0.7499999999999999  0.4999999999999999
  0.4999999999999999  0.7499999999999999  0.4999999999999999
  0.3749999999999999  0.3749999999999999  0.3749999999999999
  0.8750000000000000  0.3749999999999999  0.3749999999999999
  0.3749999999999999  0.8750000000000000  0.3749999999999999
  0.8750000000000000  0.8750000000000000  0.3749999999999999
  0.3749999999999999  0.3749999999999999  0.8750000000000000
  0.8750000000000000  0.3749999999999999  0.8750000000000000
  0.3749999999999999  0.8750000000000000  0.8750000000000000
  0.8750000000000000  0.8750000000000000  0.8750000000000000
  0.2500000000000000  0.0000000000000000  0.0000000000000000
  0.7499999999999999  0.0000000000000000  0.0000000000000000
  0.2500000000000000  0.4999999999999999  0.0000000000000000
  0.7499999999999999  0.4999999999999999  0.0000000000000000
  0.2500000000000000  0.0000000000000000  0.4999999999999999
  0.7499999999999999  0.0000000000000000  0.4999999999999999
  0.2500000000000000  0.4999999999999999  0.4999999999999999
  0.7499999999999999  0.4999999999999999  0.4999999999999999
  0.3749999999999999  0.1250000000000000  0.1250000000000000
  0.8750000000000000  0.1250000000000000  0.1250000000000000
  0.3749999999999999  0.6250000000000000  0.1250000000000000
  0.8750000000000000  0.6250000000000000  0.1250000000000000
  0.3749999999999999  0.1250000000000000  0.6250000000000000
  0.8750000000000000  0.1250000000000000  0.6250000000000000
  0.3749999999999999  0.6250000000000000  0.6250000000000000
  0.8750000000000000  0.6250000000000000  0.6250000000000000
  0.2500000000000000  0.2500000000000000  0.2500000000000000
  0.7499999999999999  0.2500000000000000  0.2500000000000000
  0.2500000000000000  0.7499999999999999  0.2500000000000000
  0.7499999999999999  0.7499999999999999  0.2500000000000000
  0.2500000000000000  0.2500000000000000  0.7499999999999999
  0.7499999999999999  0.2500000000000000  0.7499999999999999
  0.2500000000000000  0.7499999999999999  0.7499999999999999
  0.7499999999999999  0.7499999999999999  0.7499999999999999
