PREC = Accurate
EDIFF = 1e-6
ISMEAR = -5
SIGMA = 0.060
POTIM = 0.020
ISTART = 0
NCORE=4
LCHARG = FALSE
LWAVE = FALSE
